#
# Keywords:
#
opti conp dist nosym full
#
# Options:
#
title
BaSrmix
end
cell
  20.031893  20.031897  20.031897  90.000000  90.000000  90.000000
fractional  1
Ba    core 0.0000000 0.0000000 0.0000000 3.45000000 1.00000 0.00000
Ba    core 0.0000000 0.0000000 0.2000000 3.45000000 1.00000 0.00000
Ba    core 0.0000000 0.0000000 0.4000000 3.45000000 1.00000 0.00000
Ba    core 0.0000000 0.0000000 0.6000000 3.45000000 1.00000 0.00000
Ba    core 0.0000000 0.0000000 0.8000000 3.45000000 1.00000 0.00000
Ba    core 0.0000000 0.2000000 0.0000000 3.45000000 1.00000 0.00000
Ba    core 0.0000000 0.2000000 0.2000000 3.45000000 1.00000 0.00000
Ba    core 0.0000000 0.2000000 0.4000000 3.45000000 1.00000 0.00000
Ba    core 0.0000000 0.2000000 0.6000000 3.45000000 1.00000 0.00000
Ba    core 0.0000000 0.2000000 0.8000000 3.45000000 1.00000 0.00000
Ba    core 0.0000000 0.4000000 0.0000000 3.45000000 1.00000 0.00000
Ba    core 0.0000000 0.4000000 0.2000000 3.45000000 1.00000 0.00000
Ba    core 0.0000000 0.4000000 0.4000000 3.45000000 1.00000 0.00000
Ba    core 0.0000000 0.4000000 0.6000000 3.45000000 1.00000 0.00000
Ba    core 0.0000000 0.4000000 0.8000000 3.45000000 1.00000 0.00000
Ba    core 0.0000000 0.6000000 0.0000000 3.45000000 1.00000 0.00000
Ba    core 0.0000000 0.6000000 0.2000000 3.45000000 1.00000 0.00000
Ba    core 0.0000000 0.6000000 0.4000000 3.45000000 1.00000 0.00000
Ba    core 0.0000000 0.6000000 0.6000000 3.45000000 1.00000 0.00000
Ba    core 0.0000000 0.6000000 0.8000000 3.45000000 1.00000 0.00000
Ba    core 0.0000000 0.8000000 0.0000000 3.45000000 1.00000 0.00000
Ba    core 0.0000000 0.8000000 0.2000000 3.45000000 1.00000 0.00000
Ba    core 0.0000000 0.8000000 0.4000000 3.45000000 1.00000 0.00000
Ba    core 0.0000000 0.8000000 0.6000000 3.45000000 1.00000 0.00000
Ba    core 0.0000000 0.8000000 0.8000000 3.45000000 1.00000 0.00000
Ba    core 0.2000000 0.0000000 0.0000000 3.45000000 1.00000 0.00000
Ba    core 0.2000000 0.0000000 0.2000000 3.45000000 1.00000 0.00000
Ba    core 0.2000000 0.0000000 0.4000000 3.45000000 1.00000 0.00000
Ba    core 0.2000000 0.0000000 0.6000000 3.45000000 1.00000 0.00000
Ba    core 0.2000000 0.0000000 0.8000000 3.45000000 1.00000 0.00000
Ba    core 0.2000000 0.2000000 0.0000000 3.45000000 1.00000 0.00000
Ba    core 0.2000000 0.2000000 0.2000000 3.45000000 1.00000 0.00000
Ba    core 0.2000000 0.2000000 0.4000000 3.45000000 1.00000 0.00000
Ba    core 0.2000000 0.2000000 0.6000000 3.45000000 1.00000 0.00000
Ba    core 0.2000000 0.2000000 0.8000000 3.45000000 1.00000 0.00000
Ba    core 0.2000000 0.4000000 0.0000000 3.45000000 1.00000 0.00000
Ba    core 0.2000000 0.4000000 0.2000000 3.45000000 1.00000 0.00000
Ba    core 0.2000000 0.4000000 0.4000000 3.45000000 1.00000 0.00000
Ba    core 0.2000000 0.4000000 0.6000000 3.45000000 1.00000 0.00000
Ba    core 0.2000000 0.4000000 0.8000000 3.45000000 1.00000 0.00000
Ba    core 0.2000000 0.6000000 0.0000000 3.45000000 1.00000 0.00000
Ba    core 0.2000000 0.6000000 0.2000000 3.45000000 1.00000 0.00000
Ba    core 0.2000000 0.6000000 0.4000000 3.45000000 1.00000 0.00000
Ba    core 0.2000000 0.6000000 0.6000000 3.45000000 1.00000 0.00000
Ba    core 0.2000000 0.6000000 0.8000000 3.45000000 1.00000 0.00000
Ba    core 0.2000000 0.8000000 0.0000000 3.45000000 1.00000 0.00000
Ba    core 0.2000000 0.8000000 0.2000000 3.45000000 1.00000 0.00000
Ba    core 0.2000000 0.8000000 0.4000000 3.45000000 1.00000 0.00000
Ba    core 0.2000000 0.8000000 0.6000000 3.45000000 1.00000 0.00000
Ba    core 0.2000000 0.8000000 0.8000000 3.45000000 1.00000 0.00000
Ba    core 0.4000000 0.0000000 0.0000000 3.45000000 1.00000 0.00000
Ba    core 0.4000000 0.0000000 0.2000000 3.45000000 1.00000 0.00000
Ba    core 0.4000000 0.0000000 0.4000000 3.45000000 1.00000 0.00000
Ba    core 0.4000000 0.0000000 0.6000000 3.45000000 1.00000 0.00000
Ba    core 0.4000000 0.0000000 0.8000000 3.45000000 1.00000 0.00000
Ba    core 0.4000000 0.2000000 0.0000000 3.45000000 1.00000 0.00000
Ba    core 0.4000000 0.2000000 0.2000000 3.45000000 1.00000 0.00000
Ba    core 0.4000000 0.2000000 0.4000000 3.45000000 1.00000 0.00000
Ba    core 0.4000000 0.2000000 0.6000000 3.45000000 1.00000 0.00000
Ba    core 0.4000000 0.2000000 0.8000000 3.45000000 1.00000 0.00000
Ba    core 0.4000000 0.4000000 0.0000000 3.45000000 1.00000 0.00000
Ba    core 0.4000000 0.4000000 0.2000000 3.45000000 1.00000 0.00000
Ba    core 0.4000000 0.4000000 0.4000000 3.45000000 1.00000 0.00000
Ba    core 0.4000000 0.4000000 0.6000000 3.45000000 1.00000 0.00000
Ba    core 0.4000000 0.4000000 0.8000000 3.45000000 1.00000 0.00000
Ba    core 0.4000000 0.6000000 0.0000000 3.45000000 1.00000 0.00000
Ba    core 0.4000000 0.6000000 0.2000000 3.45000000 1.00000 0.00000
Ba    core 0.4000000 0.6000000 0.4000000 3.45000000 1.00000 0.00000
Ba    core 0.4000000 0.6000000 0.6000000 3.45000000 1.00000 0.00000
Ba    core 0.4000000 0.6000000 0.8000000 3.45000000 1.00000 0.00000
Ba    core 0.4000000 0.8000000 0.0000000 3.45000000 1.00000 0.00000
Ba    core 0.4000000 0.8000000 0.2000000 3.45000000 1.00000 0.00000
Ba    core 0.4000000 0.8000000 0.4000000 3.45000000 1.00000 0.00000
Ba    core 0.4000000 0.8000000 0.6000000 3.45000000 1.00000 0.00000
Ba    core 0.4000000 0.8000000 0.8000000 3.45000000 1.00000 0.00000
Ba    core 0.6000000 0.0000000 0.0000000 3.45000000 1.00000 0.00000
Ba    core 0.6000000 0.0000000 0.2000000 3.45000000 1.00000 0.00000
Ba    core 0.6000000 0.0000000 0.4000000 3.45000000 1.00000 0.00000
Ba    core 0.6000000 0.0000000 0.6000000 3.45000000 1.00000 0.00000
Ba    core 0.6000000 0.0000000 0.8000000 3.45000000 1.00000 0.00000
Ba    core 0.6000000 0.2000000 0.0000000 3.45000000 1.00000 0.00000
Ba    core 0.6000000 0.2000000 0.2000000 3.45000000 1.00000 0.00000
Ba    core 0.6000000 0.2000000 0.4000000 3.45000000 1.00000 0.00000
Ba    core 0.6000000 0.2000000 0.6000000 3.45000000 1.00000 0.00000
Ba    core 0.6000000 0.2000000 0.8000000 3.45000000 1.00000 0.00000
Ba    core 0.6000000 0.4000000 0.0000000 3.45000000 1.00000 0.00000
Ba    core 0.6000000 0.4000000 0.2000000 3.45000000 1.00000 0.00000
Ba    core 0.6000000 0.4000000 0.4000000 3.45000000 1.00000 0.00000
Ba    core 0.6000000 0.4000000 0.6000000 3.45000000 1.00000 0.00000
Ba    core 0.6000000 0.4000000 0.8000000 3.45000000 1.00000 0.00000
Ba    core 0.6000000 0.6000000 0.0000000 3.45000000 1.00000 0.00000
Ba    core 0.6000000 0.6000000 0.2000000 3.45000000 1.00000 0.00000
Ba    core 0.6000000 0.6000000 0.4000000 3.45000000 1.00000 0.00000
Ba    core 0.6000000 0.6000000 0.6000000 3.45000000 1.00000 0.00000
Ba    core 0.6000000 0.6000000 0.8000000 3.45000000 1.00000 0.00000
Ba    core 0.6000000 0.8000000 0.0000000 3.45000000 1.00000 0.00000
Ba    core 0.6000000 0.8000000 0.2000000 3.45000000 1.00000 0.00000
Ba    core 0.6000000 0.8000000 0.4000000 3.45000000 1.00000 0.00000
Ba    core 0.6000000 0.8000000 0.6000000 3.45000000 1.00000 0.00000
Ba    core 0.6000000 0.8000000 0.8000000 3.45000000 1.00000 0.00000
Ba    core 0.8000000 0.0000000 0.0000000 3.45000000 1.00000 0.00000
Ba    core 0.8000000 0.0000000 0.2000000 3.45000000 1.00000 0.00000
Ba    core 0.8000000 0.0000000 0.4000000 3.45000000 1.00000 0.00000
Ba    core 0.8000000 0.0000000 0.6000000 3.45000000 1.00000 0.00000
Ba    core 0.8000000 0.0000000 0.8000000 3.45000000 1.00000 0.00000
Ba    core 0.8000000 0.2000000 0.0000000 3.45000000 1.00000 0.00000
Ba    core 0.8000000 0.2000000 0.2000000 3.45000000 1.00000 0.00000
Ba    core 0.8000000 0.2000000 0.4000000 3.45000000 1.00000 0.00000
Ba    core 0.8000000 0.2000000 0.6000000 3.45000000 1.00000 0.00000
Ba    core 0.8000000 0.2000000 0.8000000 3.45000000 1.00000 0.00000
Ba    core 0.8000000 0.4000000 0.0000000 3.45000000 1.00000 0.00000
Ba    core 0.8000000 0.4000000 0.2000000 3.45000000 1.00000 0.00000
Ba    core 0.8000000 0.4000000 0.4000000 3.45000000 1.00000 0.00000
Ba    core 0.8000000 0.4000000 0.6000000 3.45000000 1.00000 0.00000
Ba    core 0.8000000 0.4000000 0.8000000 3.45000000 1.00000 0.00000
Ba    core 0.8000000 0.6000000 0.0000000 3.45000000 1.00000 0.00000
Ba    core 0.8000000 0.6000000 0.2000000 3.45000000 1.00000 0.00000
Ba    core 0.8000000 0.6000000 0.4000000 3.45000000 1.00000 0.00000
Ba    core 0.8000000 0.6000000 0.6000000 3.45000000 1.00000 0.00000
Ba    core 0.8000000 0.6000000 0.8000000 3.45000000 1.00000 0.00000
Ba    core 0.8000000 0.8000000 0.0000000 3.45000000 1.00000 0.00000
Ba    core 0.8000000 0.8000000 0.2000000 3.45000000 1.00000 0.00000
Ba    core 0.8000000 0.8000000 0.4000000 3.45000000 1.00000 0.00000
Ba    core 0.8000000 0.8000000 0.6000000 3.45000000 1.00000 0.00000
Ba    core 0.8000000 0.8000000 0.8000000 3.45000000 1.00000 0.00000
Ti    core 0.1000000 0.1000000 0.1000000 4.00000000 1.00000 0.00000
Ti    core 0.1000000 0.1000000 0.3000000 4.00000000 1.00000 0.00000
Ti    core 0.1000000 0.1000000 0.5000000 4.00000000 1.00000 0.00000
Ti    core 0.1000000 0.1000000 0.7000000 4.00000000 1.00000 0.00000
Ti    core 0.1000000 0.1000000 0.9000000 4.00000000 1.00000 0.00000
Ti    core 0.1000000 0.3000000 0.1000000 4.00000000 1.00000 0.00000
Ti    core 0.1000000 0.3000000 0.3000000 4.00000000 1.00000 0.00000
Ti    core 0.1000000 0.3000000 0.5000000 4.00000000 1.00000 0.00000
Ti    core 0.1000000 0.3000000 0.7000000 4.00000000 1.00000 0.00000
Ti    core 0.1000000 0.3000000 0.9000000 4.00000000 1.00000 0.00000
Ti    core 0.1000000 0.5000000 0.1000000 4.00000000 1.00000 0.00000
Ti    core 0.1000000 0.5000000 0.3000000 4.00000000 1.00000 0.00000
Ti    core 0.1000000 0.5000000 0.5000000 4.00000000 1.00000 0.00000
Ti    core 0.1000000 0.5000000 0.7000000 4.00000000 1.00000 0.00000
Ti    core 0.1000000 0.5000000 0.9000000 4.00000000 1.00000 0.00000
Ti    core 0.1000000 0.7000000 0.1000000 4.00000000 1.00000 0.00000
Ti    core 0.1000000 0.7000000 0.3000000 4.00000000 1.00000 0.00000
Ti    core 0.1000000 0.7000000 0.5000000 4.00000000 1.00000 0.00000
Ti    core 0.1000000 0.7000000 0.7000000 4.00000000 1.00000 0.00000
Ti    core 0.1000000 0.7000000 0.9000000 4.00000000 1.00000 0.00000
Ti    core 0.1000000 0.9000000 0.1000000 4.00000000 1.00000 0.00000
Ti    core 0.1000000 0.9000000 0.3000000 4.00000000 1.00000 0.00000
Ti    core 0.1000000 0.9000000 0.5000000 4.00000000 1.00000 0.00000
Ti    core 0.1000000 0.9000000 0.7000000 4.00000000 1.00000 0.00000
Ti    core 0.1000000 0.9000000 0.9000000 4.00000000 1.00000 0.00000
Ti    core 0.3000000 0.1000000 0.1000000 4.00000000 1.00000 0.00000
Ti    core 0.3000000 0.1000000 0.3000000 4.00000000 1.00000 0.00000
Ti    core 0.3000000 0.1000000 0.5000000 4.00000000 1.00000 0.00000
Ti    core 0.3000000 0.1000000 0.7000000 4.00000000 1.00000 0.00000
Ti    core 0.3000000 0.1000000 0.9000000 4.00000000 1.00000 0.00000
Ti    core 0.3000000 0.3000000 0.1000000 4.00000000 1.00000 0.00000
Ti    core 0.3000000 0.3000000 0.3000000 4.00000000 1.00000 0.00000
Ti    core 0.3000000 0.3000000 0.5000000 4.00000000 1.00000 0.00000
Ti    core 0.3000000 0.3000000 0.7000000 4.00000000 1.00000 0.00000
Ti    core 0.3000000 0.3000000 0.9000000 4.00000000 1.00000 0.00000
Ti    core 0.3000000 0.5000000 0.1000000 4.00000000 1.00000 0.00000
Ti    core 0.3000000 0.5000000 0.3000000 4.00000000 1.00000 0.00000
Ti    core 0.3000000 0.5000000 0.5000000 4.00000000 1.00000 0.00000
Ti    core 0.3000000 0.5000000 0.7000000 4.00000000 1.00000 0.00000
Ti    core 0.3000000 0.5000000 0.9000000 4.00000000 1.00000 0.00000
Ti    core 0.3000000 0.7000000 0.1000000 4.00000000 1.00000 0.00000
Ti    core 0.3000000 0.7000000 0.3000000 4.00000000 1.00000 0.00000
Ti    core 0.3000000 0.7000000 0.5000000 4.00000000 1.00000 0.00000
Ti    core 0.3000000 0.7000000 0.7000000 4.00000000 1.00000 0.00000
Ti    core 0.3000000 0.7000000 0.9000000 4.00000000 1.00000 0.00000
Ti    core 0.3000000 0.9000000 0.1000000 4.00000000 1.00000 0.00000
Ti    core 0.3000000 0.9000000 0.3000000 4.00000000 1.00000 0.00000
Ti    core 0.3000000 0.9000000 0.5000000 4.00000000 1.00000 0.00000
Ti    core 0.3000000 0.9000000 0.7000000 4.00000000 1.00000 0.00000
Ti    core 0.3000000 0.9000000 0.9000000 4.00000000 1.00000 0.00000
Ti    core 0.5000000 0.1000000 0.1000000 4.00000000 1.00000 0.00000
Ti    core 0.5000000 0.1000000 0.3000000 4.00000000 1.00000 0.00000
Ti    core 0.5000000 0.1000000 0.5000000 4.00000000 1.00000 0.00000
Ti    core 0.5000000 0.1000000 0.7000000 4.00000000 1.00000 0.00000
Ti    core 0.5000000 0.1000000 0.9000000 4.00000000 1.00000 0.00000
Ti    core 0.5000000 0.3000000 0.1000000 4.00000000 1.00000 0.00000
Ti    core 0.5000000 0.3000000 0.3000000 4.00000000 1.00000 0.00000
Ti    core 0.5000000 0.3000000 0.5000000 4.00000000 1.00000 0.00000
Ti    core 0.5000000 0.3000000 0.7000000 4.00000000 1.00000 0.00000
Ti    core 0.5000000 0.3000000 0.9000000 4.00000000 1.00000 0.00000
Ti    core 0.5000000 0.5000000 0.1000000 4.00000000 1.00000 0.00000
Ti    core 0.5000000 0.5000000 0.3000000 4.00000000 1.00000 0.00000
Ti    core 0.5000000 0.5000000 0.5000000 4.00000000 1.00000 0.00000
Ti    core 0.5000000 0.5000000 0.7000000 4.00000000 1.00000 0.00000
Ti    core 0.5000000 0.5000000 0.9000000 4.00000000 1.00000 0.00000
Ti    core 0.5000000 0.7000000 0.1000000 4.00000000 1.00000 0.00000
Ti    core 0.5000000 0.7000000 0.3000000 4.00000000 1.00000 0.00000
Ti    core 0.5000000 0.7000000 0.5000000 4.00000000 1.00000 0.00000
Ti    core 0.5000000 0.7000000 0.7000000 4.00000000 1.00000 0.00000
Ti    core 0.5000000 0.7000000 0.9000000 4.00000000 1.00000 0.00000
Ti    core 0.5000000 0.9000000 0.1000000 4.00000000 1.00000 0.00000
Ti    core 0.5000000 0.9000000 0.3000000 4.00000000 1.00000 0.00000
Ti    core 0.5000000 0.9000000 0.5000000 4.00000000 1.00000 0.00000
Ti    core 0.5000000 0.9000000 0.7000000 4.00000000 1.00000 0.00000
Ti    core 0.5000000 0.9000000 0.9000000 4.00000000 1.00000 0.00000
Ti    core 0.7000000 0.1000000 0.1000000 4.00000000 1.00000 0.00000
Ti    core 0.7000000 0.1000000 0.3000000 4.00000000 1.00000 0.00000
Ti    core 0.7000000 0.1000000 0.5000000 4.00000000 1.00000 0.00000             
Ti    core 0.7000000 0.1000000 0.7000000 4.00000000 1.00000 0.00000
Ti    core 0.7000000 0.1000000 0.9000000 4.00000000 1.00000 0.00000
Ti    core 0.7000000 0.3000000 0.1000000 4.00000000 1.00000 0.00000
Ti    core 0.7000000 0.3000000 0.3000000 4.00000000 1.00000 0.00000
Ti    core 0.7000000 0.3000000 0.5000000 4.00000000 1.00000 0.00000
Ti    core 0.7000000 0.3000000 0.7000000 4.00000000 1.00000 0.00000
Ti    core 0.7000000 0.3000000 0.9000000 4.00000000 1.00000 0.00000
Ti    core 0.7000000 0.5000000 0.1000000 4.00000000 1.00000 0.00000
Ti    core 0.7000000 0.5000000 0.3000000 4.00000000 1.00000 0.00000
Ti    core 0.7000000 0.5000000 0.5000000 4.00000000 1.00000 0.00000
Ti    core 0.7000000 0.5000000 0.7000000 4.00000000 1.00000 0.00000
Ti    core 0.7000000 0.5000000 0.9000000 4.00000000 1.00000 0.00000
Ti    core 0.7000000 0.7000000 0.1000000 4.00000000 1.00000 0.00000
Ti    core 0.7000000 0.7000000 0.3000000 4.00000000 1.00000 0.00000
Ti    core 0.7000000 0.7000000 0.5000000 4.00000000 1.00000 0.00000
Ti    core 0.7000000 0.7000000 0.7000000 4.00000000 1.00000 0.00000
Ti    core 0.7000000 0.7000000 0.9000000 4.00000000 1.00000 0.00000
Ti    core 0.7000000 0.9000000 0.1000000 4.00000000 1.00000 0.00000
Ti    core 0.7000000 0.9000000 0.3000000 4.00000000 1.00000 0.00000
Ti    core 0.7000000 0.9000000 0.5000000 4.00000000 1.00000 0.00000
Ti    core 0.7000000 0.9000000 0.7000000 4.00000000 1.00000 0.00000
Ti    core 0.7000000 0.9000000 0.9000000 4.00000000 1.00000 0.00000
Ti    core 0.9000000 0.1000000 0.1000000 4.00000000 1.00000 0.00000
Ti    core 0.9000000 0.1000000 0.3000000 4.00000000 1.00000 0.00000
Ti    core 0.9000000 0.1000000 0.5000000 4.00000000 1.00000 0.00000
Ti    core 0.9000000 0.1000000 0.7000000 4.00000000 1.00000 0.00000
Ti    core 0.9000000 0.1000000 0.9000000 4.00000000 1.00000 0.00000
Ti    core 0.9000000 0.3000000 0.1000000 4.00000000 1.00000 0.00000
Ti    core 0.9000000 0.3000000 0.3000000 4.00000000 1.00000 0.00000
Ti    core 0.9000000 0.3000000 0.5000000 4.00000000 1.00000 0.00000
Ti    core 0.9000000 0.3000000 0.7000000 4.00000000 1.00000 0.00000
Ti    core 0.9000000 0.3000000 0.9000000 4.00000000 1.00000 0.00000
Ti    core 0.9000000 0.5000000 0.1000000 4.00000000 1.00000 0.00000
Ti    core 0.9000000 0.5000000 0.3000000 4.00000000 1.00000 0.00000
Ti    core 0.9000000 0.5000000 0.5000000 4.00000000 1.00000 0.00000
Ti    core 0.9000000 0.5000000 0.7000000 4.00000000 1.00000 0.00000
Ti    core 0.9000000 0.5000000 0.9000000 4.00000000 1.00000 0.00000
Ti    core 0.9000000 0.7000000 0.1000000 4.00000000 1.00000 0.00000
Ti    core 0.9000000 0.7000000 0.3000000 4.00000000 1.00000 0.00000
Ti    core 0.9000000 0.7000000 0.5000000 4.00000000 1.00000 0.00000
Ti    core 0.9000000 0.7000000 0.7000000 4.00000000 1.00000 0.00000
Ti    core 0.9000000 0.7000000 0.9000000 4.00000000 1.00000 0.00000
Ti    core 0.9000000 0.9000000 0.1000000 4.00000000 1.00000 0.00000
Ti    core 0.9000000 0.9000000 0.3000000 4.00000000 1.00000 0.00000
Ti    core 0.9000000 0.9000000 0.5000000 4.00000000 1.00000 0.00000
Ti    core 0.9000000 0.9000000 0.7000000 4.00000000 1.00000 0.00000
Ti    core 0.9000000 0.9000000 0.9000000 4.00000000 1.00000 0.00000
O     core 0.1000000 0.1000000 0.0000000 0.47200000 1.00000 0.00000
O     core 0.1000000 0.1000000 0.2000000 0.47200000 1.00000 0.00000
O     core 0.1000000 0.1000000 0.4000000 0.47200000 1.00000 0.00000
O     core 0.1000000 0.1000000 0.6000000 0.47200000 1.00000 0.00000
O     core 0.1000000 0.1000000 0.8000000 0.47200000 1.00000 0.00000
O     core 0.1000000 0.3000000 0.0000000 0.47200000 1.00000 0.00000
O     core 0.1000000 0.3000000 0.2000000 0.47200000 1.00000 0.00000
O     core 0.1000000 0.3000000 0.4000000 0.47200000 1.00000 0.00000
O     core 0.1000000 0.3000000 0.6000000 0.47200000 1.00000 0.00000
O     core 0.1000000 0.3000000 0.8000000 0.47200000 1.00000 0.00000
O     core 0.1000000 0.5000000 0.0000000 0.47200000 1.00000 0.00000
O     core 0.1000000 0.5000000 0.2000000 0.47200000 1.00000 0.00000
O     core 0.1000000 0.5000000 0.4000000 0.47200000 1.00000 0.00000
O     core 0.1000000 0.5000000 0.6000000 0.47200000 1.00000 0.00000
O     core 0.1000000 0.5000000 0.8000000 0.47200000 1.00000 0.00000
O     core 0.1000000 0.7000000 0.0000000 0.47200000 1.00000 0.00000
O     core 0.1000000 0.7000000 0.2000000 0.47200000 1.00000 0.00000
O     core 0.1000000 0.7000000 0.4000000 0.47200000 1.00000 0.00000
O     core 0.1000000 0.7000000 0.6000000 0.47200000 1.00000 0.00000
O     core 0.1000000 0.7000000 0.8000000 0.47200000 1.00000 0.00000
O     core 0.1000000 0.9000000 0.0000000 0.47200000 1.00000 0.00000
O     core 0.1000000 0.9000000 0.2000000 0.47200000 1.00000 0.00000
O     core 0.1000000 0.9000000 0.4000000 0.47200000 1.00000 0.00000
O     core 0.1000000 0.9000000 0.6000000 0.47200000 1.00000 0.00000
O     core 0.1000000 0.9000000 0.8000000 0.47200000 1.00000 0.00000
O     core 0.3000000 0.1000000 0.0000000 0.47200000 1.00000 0.00000
O     core 0.3000000 0.1000000 0.2000000 0.47200000 1.00000 0.00000
O     core 0.3000000 0.1000000 0.4000000 0.47200000 1.00000 0.00000
O     core 0.3000000 0.1000000 0.6000000 0.47200000 1.00000 0.00000
O     core 0.3000000 0.1000000 0.8000000 0.47200000 1.00000 0.00000
O     core 0.3000000 0.3000000 0.0000000 0.47200000 1.00000 0.00000
O     core 0.3000000 0.3000000 0.2000000 0.47200000 1.00000 0.00000
O     core 0.3000000 0.3000000 0.4000000 0.47200000 1.00000 0.00000
O     core 0.3000000 0.3000000 0.6000000 0.47200000 1.00000 0.00000
O     core 0.3000000 0.3000000 0.8000000 0.47200000 1.00000 0.00000
O     core 0.3000000 0.5000000 0.0000000 0.47200000 1.00000 0.00000
O     core 0.3000000 0.5000000 0.2000000 0.47200000 1.00000 0.00000
O     core 0.3000000 0.5000000 0.4000000 0.47200000 1.00000 0.00000
O     core 0.3000000 0.5000000 0.6000000 0.47200000 1.00000 0.00000
O     core 0.3000000 0.5000000 0.8000000 0.47200000 1.00000 0.00000
O     core 0.3000000 0.7000000 0.0000000 0.47200000 1.00000 0.00000
O     core 0.3000000 0.7000000 0.2000000 0.47200000 1.00000 0.00000
O     core 0.3000000 0.7000000 0.4000000 0.47200000 1.00000 0.00000
O     core 0.3000000 0.7000000 0.6000000 0.47200000 1.00000 0.00000
O     core 0.3000000 0.7000000 0.8000000 0.47200000 1.00000 0.00000
O     core 0.3000000 0.9000000 0.0000000 0.47200000 1.00000 0.00000
O     core 0.3000000 0.9000000 0.2000000 0.47200000 1.00000 0.00000
O     core 0.3000000 0.9000000 0.4000000 0.47200000 1.00000 0.00000
O     core 0.3000000 0.9000000 0.6000000 0.47200000 1.00000 0.00000
O     core 0.3000000 0.9000000 0.8000000 0.47200000 1.00000 0.00000
O     core 0.5000000 0.1000000 0.0000000 0.47200000 1.00000 0.00000
O     core 0.5000000 0.1000000 0.2000000 0.47200000 1.00000 0.00000
O     core 0.5000000 0.1000000 0.4000000 0.47200000 1.00000 0.00000
O     core 0.5000000 0.1000000 0.6000000 0.47200000 1.00000 0.00000
O     core 0.5000000 0.1000000 0.8000000 0.47200000 1.00000 0.00000
O     core 0.5000000 0.3000000 0.0000000 0.47200000 1.00000 0.00000
O     core 0.5000000 0.3000000 0.2000000 0.47200000 1.00000 0.00000
O     core 0.5000000 0.3000000 0.4000000 0.47200000 1.00000 0.00000
O     core 0.5000000 0.3000000 0.6000000 0.47200000 1.00000 0.00000
O     core 0.5000000 0.3000000 0.8000000 0.47200000 1.00000 0.00000
O     core 0.5000000 0.5000000 0.0000000 0.47200000 1.00000 0.00000
O     core 0.5000000 0.5000000 0.2000000 0.47200000 1.00000 0.00000
O     core 0.5000000 0.5000000 0.4000000 0.47200000 1.00000 0.00000
O     core 0.5000000 0.5000000 0.6000000 0.47200000 1.00000 0.00000
O     core 0.5000000 0.5000000 0.8000000 0.47200000 1.00000 0.00000
O     core 0.5000000 0.7000000 0.0000000 0.47200000 1.00000 0.00000
O     core 0.5000000 0.7000000 0.2000000 0.47200000 1.00000 0.00000
O     core 0.5000000 0.7000000 0.4000000 0.47200000 1.00000 0.00000
O     core 0.5000000 0.7000000 0.6000000 0.47200000 1.00000 0.00000
O     core 0.5000000 0.7000000 0.8000000 0.47200000 1.00000 0.00000
O     core 0.5000000 0.9000000 0.0000000 0.47200000 1.00000 0.00000
O     core 0.5000000 0.9000000 0.2000000 0.47200000 1.00000 0.00000
O     core 0.5000000 0.9000000 0.4000000 0.47200000 1.00000 0.00000
O     core 0.5000000 0.9000000 0.6000000 0.47200000 1.00000 0.00000
O     core 0.5000000 0.9000000 0.8000000 0.47200000 1.00000 0.00000
O     core 0.7000000 0.1000000 0.0000000 0.47200000 1.00000 0.00000
O     core 0.7000000 0.1000000 0.2000000 0.47200000 1.00000 0.00000
O     core 0.7000000 0.1000000 0.4000000 0.47200000 1.00000 0.00000
O     core 0.7000000 0.1000000 0.6000000 0.47200000 1.00000 0.00000
O     core 0.7000000 0.1000000 0.8000000 0.47200000 1.00000 0.00000
O     core 0.7000000 0.3000000 0.0000000 0.47200000 1.00000 0.00000
O     core 0.7000000 0.3000000 0.2000000 0.47200000 1.00000 0.00000
O     core 0.7000000 0.3000000 0.4000000 0.47200000 1.00000 0.00000
O     core 0.7000000 0.3000000 0.6000000 0.47200000 1.00000 0.00000
O     core 0.7000000 0.3000000 0.8000000 0.47200000 1.00000 0.00000
O     core 0.7000000 0.5000000 0.0000000 0.47200000 1.00000 0.00000
O     core 0.7000000 0.5000000 0.2000000 0.47200000 1.00000 0.00000
O     core 0.7000000 0.5000000 0.4000000 0.47200000 1.00000 0.00000
O     core 0.7000000 0.5000000 0.6000000 0.47200000 1.00000 0.00000
O     core 0.7000000 0.5000000 0.8000000 0.47200000 1.00000 0.00000
O     core 0.7000000 0.7000000 0.0000000 0.47200000 1.00000 0.00000
O     core 0.7000000 0.7000000 0.2000000 0.47200000 1.00000 0.00000
O     core 0.7000000 0.7000000 0.4000000 0.47200000 1.00000 0.00000
O     core 0.7000000 0.7000000 0.6000000 0.47200000 1.00000 0.00000
O     core 0.7000000 0.7000000 0.8000000 0.47200000 1.00000 0.00000
O     core 0.7000000 0.9000000 0.0000000 0.47200000 1.00000 0.00000
O     core 0.7000000 0.9000000 0.2000000 0.47200000 1.00000 0.00000
O     core 0.7000000 0.9000000 0.4000000 0.47200000 1.00000 0.00000
O     core 0.7000000 0.9000000 0.6000000 0.47200000 1.00000 0.00000
O     core 0.7000000 0.9000000 0.8000000 0.47200000 1.00000 0.00000
O     core 0.9000000 0.1000000 0.0000000 0.47200000 1.00000 0.00000
O     core 0.9000000 0.1000000 0.2000000 0.47200000 1.00000 0.00000
O     core 0.9000000 0.1000000 0.4000000 0.47200000 1.00000 0.00000
O     core 0.9000000 0.1000000 0.6000000 0.47200000 1.00000 0.00000
O     core 0.9000000 0.1000000 0.8000000 0.47200000 1.00000 0.00000
O     core 0.9000000 0.3000000 0.0000000 0.47200000 1.00000 0.00000
O     core 0.9000000 0.3000000 0.2000000 0.47200000 1.00000 0.00000
O     core 0.9000000 0.3000000 0.4000000 0.47200000 1.00000 0.00000
O     core 0.9000000 0.3000000 0.6000000 0.47200000 1.00000 0.00000
O     core 0.9000000 0.3000000 0.8000000 0.47200000 1.00000 0.00000
O     core 0.9000000 0.5000000 0.0000000 0.47200000 1.00000 0.00000
O     core 0.9000000 0.5000000 0.2000000 0.47200000 1.00000 0.00000
O     core 0.9000000 0.5000000 0.4000000 0.47200000 1.00000 0.00000
O     core 0.9000000 0.5000000 0.6000000 0.47200000 1.00000 0.00000
O     core 0.9000000 0.5000000 0.8000000 0.47200000 1.00000 0.00000
O     core 0.9000000 0.7000000 0.0000000 0.47200000 1.00000 0.00000
O     core 0.9000000 0.7000000 0.2000000 0.47200000 1.00000 0.00000
O     core 0.9000000 0.7000000 0.4000000 0.47200000 1.00000 0.00000
O     core 0.9000000 0.7000000 0.6000000 0.47200000 1.00000 0.00000
O     core 0.9000000 0.7000000 0.8000000 0.47200000 1.00000 0.00000
O     core 0.9000000 0.9000000 0.0000000 0.47200000 1.00000 0.00000
O     core 0.9000000 0.9000000 0.2000000 0.47200000 1.00000 0.00000
O     core 0.9000000 0.9000000 0.4000000 0.47200000 1.00000 0.00000
O     core 0.9000000 0.9000000 0.6000000 0.47200000 1.00000 0.00000
O     core 0.9000000 0.9000000 0.8000000 0.47200000 1.00000 0.00000
O     core 0.0000000 0.1000000 0.1000000 0.47200000 1.00000 0.00000
O     core 0.0000000 0.1000000 0.3000000 0.47200000 1.00000 0.00000
O     core 0.0000000 0.1000000 0.5000000 0.47200000 1.00000 0.00000
O     core 0.0000000 0.1000000 0.7000000 0.47200000 1.00000 0.00000
O     core 0.0000000 0.1000000 0.9000000 0.47200000 1.00000 0.00000
O     core 0.0000000 0.3000000 0.1000000 0.47200000 1.00000 0.00000
O     core 0.0000000 0.3000000 0.3000000 0.47200000 1.00000 0.00000
O     core 0.0000000 0.3000000 0.5000000 0.47200000 1.00000 0.00000
O     core 0.0000000 0.3000000 0.7000000 0.47200000 1.00000 0.00000
O     core 0.0000000 0.3000000 0.9000000 0.47200000 1.00000 0.00000
O     core 0.0000000 0.5000000 0.1000000 0.47200000 1.00000 0.00000
O     core 0.0000000 0.5000000 0.3000000 0.47200000 1.00000 0.00000
O     core 0.0000000 0.5000000 0.5000000 0.47200000 1.00000 0.00000
O     core 0.0000000 0.5000000 0.7000000 0.47200000 1.00000 0.00000
O     core 0.0000000 0.5000000 0.9000000 0.47200000 1.00000 0.00000
O     core 0.0000000 0.7000000 0.1000000 0.47200000 1.00000 0.00000
O     core 0.0000000 0.7000000 0.3000000 0.47200000 1.00000 0.00000
O     core 0.0000000 0.7000000 0.5000000 0.47200000 1.00000 0.00000
O     core 0.0000000 0.7000000 0.7000000 0.47200000 1.00000 0.00000
O     core 0.0000000 0.7000000 0.9000000 0.47200000 1.00000 0.00000
O     core 0.0000000 0.9000000 0.1000000 0.47200000 1.00000 0.00000
O     core 0.0000000 0.9000000 0.3000000 0.47200000 1.00000 0.00000
O     core 0.0000000 0.9000000 0.5000000 0.47200000 1.00000 0.00000
O     core 0.0000000 0.9000000 0.7000000 0.47200000 1.00000 0.00000
O     core 0.0000000 0.9000000 0.9000000 0.47200000 1.00000 0.00000
O     core 0.2000000 0.1000000 0.1000000 0.47200000 1.00000 0.00000
O     core 0.2000000 0.1000000 0.3000000 0.47200000 1.00000 0.00000
O     core 0.2000000 0.1000000 0.5000000 0.47200000 1.00000 0.00000
O     core 0.2000000 0.1000000 0.7000000 0.47200000 1.00000 0.00000
O     core 0.2000000 0.1000000 0.9000000 0.47200000 1.00000 0.00000
O     core 0.2000000 0.3000000 0.1000000 0.47200000 1.00000 0.00000
O     core 0.2000000 0.3000000 0.3000000 0.47200000 1.00000 0.00000
O     core 0.2000000 0.3000000 0.5000000 0.47200000 1.00000 0.00000
O     core 0.2000000 0.3000000 0.7000000 0.47200000 1.00000 0.00000
O     core 0.2000000 0.3000000 0.9000000 0.47200000 1.00000 0.00000
O     core 0.2000000 0.5000000 0.1000000 0.47200000 1.00000 0.00000
O     core 0.2000000 0.5000000 0.3000000 0.47200000 1.00000 0.00000
O     core 0.2000000 0.5000000 0.5000000 0.47200000 1.00000 0.00000
O     core 0.2000000 0.5000000 0.7000000 0.47200000 1.00000 0.00000
O     core 0.2000000 0.5000000 0.9000000 0.47200000 1.00000 0.00000
O     core 0.2000000 0.7000000 0.1000000 0.47200000 1.00000 0.00000
O     core 0.2000000 0.7000000 0.3000000 0.47200000 1.00000 0.00000
O     core 0.2000000 0.7000000 0.5000000 0.47200000 1.00000 0.00000
O     core 0.2000000 0.7000000 0.7000000 0.47200000 1.00000 0.00000
O     core 0.2000000 0.7000000 0.9000000 0.47200000 1.00000 0.00000
O     core 0.2000000 0.9000000 0.1000000 0.47200000 1.00000 0.00000
O     core 0.2000000 0.9000000 0.3000000 0.47200000 1.00000 0.00000
O     core 0.2000000 0.9000000 0.5000000 0.47200000 1.00000 0.00000
O     core 0.2000000 0.9000000 0.7000000 0.47200000 1.00000 0.00000
O     core 0.2000000 0.9000000 0.9000000 0.47200000 1.00000 0.00000
O     core 0.4000000 0.1000000 0.1000000 0.47200000 1.00000 0.00000
O     core 0.4000000 0.1000000 0.3000000 0.47200000 1.00000 0.00000
O     core 0.4000000 0.1000000 0.5000000 0.47200000 1.00000 0.00000
O     core 0.4000000 0.1000000 0.7000000 0.47200000 1.00000 0.00000
O     core 0.4000000 0.1000000 0.9000000 0.47200000 1.00000 0.00000
O     core 0.4000000 0.3000000 0.1000000 0.47200000 1.00000 0.00000
O     core 0.4000000 0.3000000 0.3000000 0.47200000 1.00000 0.00000
O     core 0.4000000 0.3000000 0.5000000 0.47200000 1.00000 0.00000
O     core 0.4000000 0.3000000 0.7000000 0.47200000 1.00000 0.00000
O     core 0.4000000 0.3000000 0.9000000 0.47200000 1.00000 0.00000
O     core 0.4000000 0.5000000 0.1000000 0.47200000 1.00000 0.00000
O     core 0.4000000 0.5000000 0.3000000 0.47200000 1.00000 0.00000
O     core 0.4000000 0.5000000 0.5000000 0.47200000 1.00000 0.00000